100
1000
263
261
258
258
252
252
249
248
248
247
244
242
239
233
229
226
224
214
210
203
202
202
196
195
195
193
192
187
171
171
169
168
168
162
158
156
156
155
155
155
154
149
149
146
144
140
135
135
133
131
125
124
122
119
118
114
114
111
107
105
102
96
93
91
90
90
87
85
85
84
82
80
79
78
77
76
76
68
66
66
62
60
58
54
54
52
49
46
42
39
37
32
30
26
26
25
22
20
18
18
